column=11;
row=11;
Board=[|0,0,0,3,5,0,0,0,11,0,0|0,0,9,0,0,11,3,0,6,8,0|2,0,0,0,0,0,11,0,0,10,0|8,0,0,11,0,1,7,0,0,0,10|6,5,7,0,4,0,9,0,10,0,11|0,0,10,6,1,9,0,11,0,0,0|0,0,1,0,0,4,2,0,0,0,6|0,0,0,0,0,0,4,0,0,0,0|0,8,0,1,0,0,0,0,0,0,0|0,0,6,8,0,0,0,0,2,11,4|1,0,3,0,9,2,0,4,0,0,0|];
horizontal=[|0,2,0,1,1,0,0,1,2,1|0,0,0,1,1,2,2,0,0,0|0,0,0,2,0,1,0,0,0,0|0,0,0,0,0,1,0,1,0,0|2,0,0,1,1,1,2,0,2,1|2,1,0,0,1,0,0,0,1,0|0,2,1,1,2,0,0,0,2,0|1,0,0,2,1,0,0,0,0,0|0,0,0,0,0,0,1,0,1,0|0,1,1,0,1,0,0,0,1,0|1,0,1,0,0,0,0,1,0,2|];
vertical=[|1,2,1,0,0,0,0,0,2,0,0|0,0,0,1,0,0,1,0,0,0,2|1,0,0,0,0,0,0,0,2,0,0|2,0,0,2,0,0,1,0,1,0,0|0,0,0,1,0,0,2,0,2,1,0|0,0,0,0,0,0,0,0,1,0,0|2,0,0,0,2,0,0,1,2,1,0|0,0,2,0,0,0,0,1,0,0,0|0,0,1,0,0,2,0,0,0,0,0|0,0,0,0,1,0,0,0,0,2,1|];
